22
1 0 15
2 0 4
2 1 7
3 0 8
3 1 16
3 2 13
4 0 14
4 1 5
4 2 13
4 3 17
5 0 17
5 1 13
5 2 10
5 3 12
5 4 10
6 0 13
6 1 5
6 2 2
6 3 16
6 4 10
6 5 1
7 0 6
7 1 13
7 2 17
7 3 3
7 4 12
7 5 16
7 6 11
8 0 9
8 1 11
8 2 8
8 3 16
8 4 6
8 5 17
8 6 6
8 7 2
9 0 15
9 1 13
9 2 9
9 3 10
9 4 3
9 5 2
9 6 15
9 7 15
9 8 2
10 0 6
10 1 7
10 2 7
10 3 9
10 4 3
10 5 12
10 6 14
10 7 2
10 8 8
10 9 1
11 0 3
11 1 17
11 2 6
11 3 3
11 4 8
11 5 8
11 6 16
11 7 8
11 8 17
11 9 13
11 10 17
12 0 6
12 1 13
12 2 14
12 3 10
12 4 5
12 5 11
12 6 3
12 7 1
12 8 16
12 9 7
12 10 7
12 11 5
13 0 9
13 1 3
13 2 16
13 3 4
13 4 6
13 5 15
13 6 14
13 7 7
13 8 9
13 9 2
13 10 1
13 11 11
13 12 13
14 0 16
14 1 3
14 2 16
14 3 15
14 4 3
14 5 10
14 6 5
14 7 10
14 8 12
14 9 10
14 10 13
14 11 17
14 12 12
14 13 12
15 0 15
15 1 16
15 2 1
15 3 8
15 4 17
15 5 15
15 6 11
15 7 3
15 8 6
15 9 2
15 10 6
15 11 2
15 12 4
15 13 10
15 14 9
16 0 12
16 1 15
16 2 12
16 3 10
16 4 7
16 5 16
16 6 15
16 7 3
16 8 10
16 9 16
16 10 7
16 11 17
16 12 9
16 13 9
16 14 3
16 15 8
17 0 1
17 1 1
17 2 3
17 3 17
17 4 16
17 5 2
17 6 6
17 7 5
17 8 11
17 9 7
17 10 7
17 11 3
17 12 5
17 13 9
17 14 10
17 15 1
17 16 1
18 0 10
18 1 13
18 2 11
18 3 13
18 4 10
18 5 9
18 6 12
18 7 12
18 8 7
18 9 6
18 10 9
18 11 17
18 12 2
18 13 7
18 14 17
18 15 17
18 16 17
18 17 12
19 0 13
19 1 14
19 2 8
19 3 13
19 4 13
19 5 9
19 6 9
19 7 16
19 8 17
19 9 12
19 10 10
19 11 10
19 12 13
19 13 7
19 14 16
19 15 6
19 16 14
19 17 16
19 18 3
20 0 13
20 1 2
20 2 17
20 3 7
20 4 1
20 5 17
20 6 15
20 7 4
20 8 14
20 9 3
20 10 17
20 11 7
20 12 8
20 13 9
20 14 13
20 15 4
20 16 11
20 17 12
20 18 14
20 19 12
21 0 8
21 1 16
21 2 3
21 3 2
21 4 10
21 5 13
21 6 15
21 7 2
21 8 11
21 9 14
21 10 12
21 11 4
21 12 6
21 13 16
21 14 1
21 15 17
21 16 12
21 17 15
21 18 17
21 19 17
21 20 13
